WARNING: for repeatability, setting FPU to use double precision
============================[ Problem Statistics ]=============================
|                                                                             |
|  Number of variables:           100                                         |
|  Number of clauses:             449                                         |
|  Parse time:                   0.00 s                                       |
|  Eliminated clauses:           0.00 Mb                                      |
|  Simplification time:          0.00 s                                       |
|                                                                             |
============================[ Search Statistics ]==============================
| Conflicts |          ORIGINAL         |          LEARNT          | Progress |
|           |    Vars  Clauses Literals |    Limit  Clauses Lit/Cl |          |
===============================================================================
|       100 |      98      440     1324 |      161      100      7 |  0.010 % |
|       250 |      98      440     1324 |      177      168      5 |  0.040 % |
===============================================================================
restarts              : 3
conflicts             : 272            (82574 /sec)
decisions             : 341            (0.00 % random) (103522 /sec)
propagations          : 6161           (1870370 /sec)
conflict literals     : 1640           (21.12 % deleted)
Memory used           : 13.00 MB
CPU time              : 0.003294 s

SATISFIABLE
